make supercell ['O', 'Pt']
 1.00000000000000
     11.2111997604000  0.0000000000000  0.0000000000000
      5.6055998802000  9.7091837994000  0.0000000000000
      0.0000000000000  0.0000000000000 21.1539993286000
       O    Pt
    12     80 
Selective dynamics
Direct
  0.0843917314568868  0.0830496233685679  0.7751056474246373   T   T   T
  0.0843917314568868  0.5830496233685679  0.7751056474246373   T   T   T
  0.5843917314568868  0.0830496233685679  0.7751056474246373   T   T   T
  0.5843917314568868  0.5830496233685679  0.7751056474246373   T   T   T
  0.0847800912692750  0.3315434878241346  0.7749386836554377   T   T   T
  0.0847800912692750  0.8315434878241346  0.7749386836554377   T   T   T
  0.5847800912692750  0.3315434878241346  0.7749386836554377   T   T   T
  0.5847800912692750  0.8315434878241346  0.7749386836554377   T   T   T
  0.3333295153404200  0.0828175778661502  0.7750152812774468   T   T   T
  0.3333295153404200  0.5828175778661502  0.7750152812774468   T   T   T
  0.8333295153404201  0.0828175778661502  0.7750152812774468   T   T   T
  0.8333295153404201  0.5828175778661502  0.7750152812774468   T   T   T
  0.4166650176382696  0.1666650026853951  0.2836399972315320   T   T   T
  0.4166650176382696  0.6666650026853951  0.2836399972315320   T   T   T
  0.9166650176382696  0.1666650026853951  0.2836399972315320   T   T   T
  0.9166650176382696  0.6666650026853951  0.2836399972315320   T   T   T
  0.2540003923380706  0.4926777865202598  0.7190924479810478   T   T   T
  0.2540003923380706  0.9926777865202598  0.7190924479810478   T   T   T
  0.7540003923380707  0.4926777865202598  0.7190924479810478   T   T   T
  0.7540003923380707  0.9926777865202598  0.7190924479810478   T   T   T
  0.0009514213133944  0.4992812872822822  0.7172694342753145   T   T   T
  0.0009514213133944  0.9992812872822823  0.7172694342753145   T   T   T
  0.5009514213133944  0.4992812872822822  0.7172694342753145   T   T   T
  0.5009514213133944  0.9992812872822823  0.7172694342753145   T   T   T
  0.1678012786526839  0.4156925224806070  0.6117397935983476   T   T   T
  0.1678012786526839  0.9156925224806070  0.6117397935983476   T   T   T
  0.6678012786526839  0.4156925224806070  0.6117397935983476   T   T   T
  0.6678012786526839  0.9156925224806070  0.6117397935983476   T   T   T
  0.4171356838980453  0.4157705099815191  0.6117833606534824   T   T   T
  0.4171356838980453  0.9157705099815191  0.6117833606534824   T   T   T
  0.9171356838980453  0.4157705099815191  0.6117833606534824   T   T   T
  0.9171356838980453  0.9157705099815191  0.6117833606534824   T   T   T
  0.1672557097670100  0.1659998120427469  0.6060079003895684   T   T   T
  0.1672557097670100  0.6659998120427469  0.6060079003895684   T   T   T
  0.6672557097670100  0.1659998120427469  0.6060079003895684   T   T   T
  0.6672557097670100  0.6659998120427469  0.6060079003895684   T   T   T
  0.4172626489096770  0.1662104496808662  0.6116632004034778   T   T   T
  0.4172626489096770  0.6662104496808662  0.6116632004034778   T   T   T
  0.9172626489096770  0.1662104496808662  0.6116632004034778   T   T   T
  0.9172626489096770  0.6662104496808662  0.6116632004034778   T   T   T
  0.3334222618321024  0.3332268893200450  0.5015591825383467   T   T   T
  0.3334222618321024  0.8332268893200450  0.5015591825383467   T   T   T
  0.8334222618321023  0.3332268893200450  0.5015591825383467   T   T   T
  0.8334222618321023  0.8332268893200450  0.5015591825383467   T   T   T
  0.0828382209177563  0.3343458817918436  0.5006928926592502   T   T   T
  0.0828382209177563  0.8343458817918437  0.5006928926592502   T   T   T
  0.5828382209177564  0.3343458817918436  0.5006928926592502   T   T   T
  0.5828382209177564  0.8343458817918437  0.5006928926592502   T   T   T
  0.3346324323013307  0.0825755975735809  0.5006799386642965   T   T   T
  0.3346324323013307  0.5825755975735809  0.5006799386642965   T   T   T
  0.8346324323013308  0.0825755975735809  0.5006799386642965   T   T   T
  0.8346324323013308  0.5825755975735809  0.5006799386642965   T   T   T
  0.0828484410399262  0.0825797576451798  0.5007087622351638   T   T   T
  0.0828484410399262  0.5825797576451799  0.5007087622351638   T   T   T
  0.5828484410399262  0.0825797576451798  0.5007087622351638   T   T   T
  0.5828484410399262  0.5825797576451799  0.5007087622351638   T   T   T
  0.2499999999788969  0.2500000000154508  0.3918200135231160   T   T   T
  0.2499999999788969  0.7500000000154508  0.3918200135231160   T   T   T
  0.7499999999788969  0.2500000000154508  0.3918200135231160   T   T   T
  0.7499999999788969  0.7500000000154508  0.3918200135231160   T   T   T
  0.4999999999878142  0.2500000000154508  0.3918200135231160   T   T   T
  0.4999999999878142  0.7500000000154508  0.3918200135231160   T   T   T
  0.9999999999878142  0.2500000000154508  0.3918200135231160   T   T   T
  0.9999999999878142  0.7500000000154508  0.3918200135231160   T   T   T
  0.2499999999910792  0.0000000000000000  0.3918200135231160   T   T   T
  0.2499999999910792  0.5000000000000000  0.3918200135231160   T   T   T
  0.7499999999910791  0.0000000000000000  0.3918200135231160   T   T   T
  0.7499999999910791  0.5000000000000000  0.3918200135231160   T   T   T
  0.0000000000000000  0.0000000000000000  0.3918200135231160   T   T   T
  0.0000000000000000  0.5000000000000000  0.3918200135231160   T   T   T
  0.5000000000000000  0.0000000000000000  0.3918200135231160   T   T   T
  0.5000000000000000  0.5000000000000000  0.3918200135231160   T   T   T
  0.1666650027138346  0.4166649877665307  0.2836399972315320   T   T   T
  0.1666650027138346  0.9166649877665307  0.2836399972315320   T   T   T
  0.6666650027138346  0.4166649877665307  0.2836399972315320   T   T   T
  0.6666650027138346  0.9166649877665307  0.2836399972315320   T   T   T
  0.4166650176007316  0.4166649877665307  0.2836399972315320   T   T   T
  0.4166650176007316  0.9166649877665307  0.2836399972315320   T   T   T
  0.9166650176007316  0.4166649877665307  0.2836399972315320   T   T   T
  0.9166650176007316  0.9166649877665307  0.2836399972315320   T   T   T
  0.1666650027513689  0.1666650026853951  0.2836399972315320   T   T   T
  0.1666650027513689  0.6666650026853951  0.2836399972315320   T   T   T
  0.6666650027513690  0.1666650026853951  0.2836399972315320   T   T   T
  0.6666650027513690  0.6666650026853951  0.2836399972315320   T   T   T
  0.4945921365625751  0.2522369950209025  0.7189422921171982   T   T   T
  0.4945921365625751  0.7522369950209025  0.7189422921171982   T   T   T
  0.9945921365625751  0.2522369950209025  0.7189422921171982   T   T   T
  0.9945921365625751  0.7522369950209025  0.7189422921171982   T   T   T
  0.2539207353045785  0.2520401418228299  0.7188255619401934   T   T   T
  0.2539207353045785  0.7520401418228299  0.7188255619401934   T   T   T
  0.7539207353045785  0.2520401418228299  0.7188255619401934   T   T   T
  0.7539207353045785  0.7520401418228299  0.7188255619401934   T   T   T
