INIT_CONFIG
1.0
 22.422529221509585 0.000000000000000 0.000000000000000
 0.000000000000000 19.418479922926210 0.000000000000000
 0.000000000000000 0.000000000000000 21.153959222557301
 O Pt
 19 320
Selective dynamics
Cartesian
  13.935909341926273  8.047049537585437  16.413117367084553  T T T
  21.149444541637500  10.584830254078252  16.358756166900616  T T T
  20.978195919269702  4.153418020668471  16.451688179887178  T T T
  19.624251870328660  17.832786665056997  16.380820182540102  T T T
  0.054513391852141  1.609488656821091  16.512826808386272  T T T
  5.759464878183550  16.049358677298510  16.504992475626636  T T T
  15.379819404168579  4.141246194477032  16.477220029780234  T T T
  0.109510387176587  17.790717224338053  16.390334172406742  T T T
  4.334652857590386  18.651812661344433  16.432100599420458  T T T
  16.700446160707880  16.039558963870380  16.487162788286238  T T T
  15.423829562736755  0.751336690853304  16.407060301218859  T T T
  12.605042716235785  18.535467816951225  16.497846017427442  T T T
  2.832776562682366  8.108166704422912  16.382673488143215  T T T
  19.575682298951165  7.997200633252900  16.346033728573559  T T T
  2.863831480264016  3.311981953723580  16.386372017641715  T T T
  13.916558372868753  11.457589653283497  16.490302279502821  T T T
  18.099084339244332  10.612553334979438  16.348454130434011  T T T
  9.640590587429942  18.554943619737571  16.473060047074483  T T T
  9.851590859149130  4.039071439251873  16.489152649253622  T T T
  5.605632305377395  11.327446621706958  6.000000000000000  F F F
  8.408448458066093  11.327446621706958  6.000000000000000  F F F
  11.211264610754791  11.327446621706958  6.000000000000000  F F F
  11.211264610754791  6.472826640975403  6.000000000000000  F F F
  5.605632305377395  6.472826640975403  6.000000000000000  F F F
  16.816896916132187  11.327446621706958  6.000000000000000  F F F
  1.401408076344349  4.045516650609627  6.000000000000000  F F F
  11.211264610754791  1.618206660243851  6.000000000000000  F F F
  5.605632305377395  1.618206660243851  6.000000000000000  F F F
  8.408448458066093  1.618206660243851  6.000000000000000  F F F
  2.802816152688698  11.327446621706958  6.000000000000000  F F F
  14.014080763443490  1.618206660243851  6.000000000000000  F F F
  16.816896916132187  1.618206660243851  6.000000000000000  F F F
  19.619713068820886  1.618206660243851  6.000000000000000  F F F
  2.802816152688698  1.618206660243851  6.000000000000000  F F F
  0.000000000000000  11.327446621706958  6.000000000000000  F F F
  9.809856534410443  8.900136631341178  6.000000000000000  F F F
  18.218304992476536  8.900136631341178  6.000000000000000  F F F
  0.005304478815563  3.228712503959688  10.578207222441305  T T T
  2.797930709930938  3.242713635145621  10.571793263975179  T T T
  0.000000000000000  4.854619980731552  8.288489805639326  F F F
  21.021121145165235  2.427309990365776  8.288489805639326  F F F
  18.218304992476536  2.427309990365776  8.288489805639326  F F F
  12.612672687099140  8.900136631341178  6.000000000000000  F F F
  14.014080763443490  6.472826640975403  6.000000000000000  F F F
  16.816896916132187  6.472826640975403  6.000000000000000  F F F
  19.619713068820886  6.472826640975403  6.000000000000000  F F F
  1.401408076344349  8.900136631341178  6.000000000000000  F F F
  4.204224229033047  8.900136631341178  6.000000000000000  F F F
  7.007040381721745  8.900136631341178  6.000000000000000  F F F
  4.204224229033047  4.045516650609627  6.000000000000000  F F F
  15.415488839787839  8.900136631341178  6.000000000000000  F F F
  8.408448458066093  6.472826640975403  6.000000000000000  F F F
  21.021121145165235  8.900136631341178  6.000000000000000  F F F
  2.802816152688698  6.472826640975403  6.000000000000000  F F F
  15.415488839787839  4.045516650609627  6.000000000000000  F F F
  9.809856534410443  4.045516650609627  6.000000000000000  F F F
  1.401408076344349  2.427309990365776  8.288489805639326  F F F
  4.204224229033047  2.427309990365776  8.288489805639326  F F F
  7.007040381721745  2.427309990365776  8.288489805639326  F F F
  9.809856534410443  2.427309990365776  8.288489805639326  F F F
  12.612672687099140  2.427309990365776  8.288489805639326  F F F
  12.612672687099140  18.609376592804285  6.000000000000000  F F F
  7.007040381721745  18.609376592804285  6.000000000000000  F F F
  1.401408076344349  13.754756612072732  6.000000000000000  F F F
  0.000000000000000  16.182066602438510  6.000000000000000  F F F
  4.204224229033047  13.754756612072732  6.000000000000000  F F F
  7.007040381721745  13.754756612072732  6.000000000000000  F F F
  9.809856534410443  13.754756612072732  6.000000000000000  F F F
  12.612672687099140  13.754756612072732  6.000000000000000  F F F
  15.415488839787839  13.754756612072732  6.000000000000000  F F F
  18.218304992476536  13.754756612072732  6.000000000000000  F F F
  19.619713068820886  0.000000000000000  8.288489805639326  F F F
  16.816896916132187  0.000000000000000  8.288489805639326  F F F
  9.809856534410443  18.609376592804285  6.000000000000000  F F F
  14.014080763443490  0.000000000000000  8.288489805639326  F F F
  12.612672687099140  4.045516650609627  6.000000000000000  F F F
  21.028180752398956  0.822886067874802  10.589873576389113  T T T
  18.218304992476536  4.045516650609627  6.000000000000000  F F F
  21.021121145165235  4.045516650609627  6.000000000000000  F F F
  0.000000000000000  6.472826640975403  6.000000000000000  F F F
  14.014080763443490  11.327446621706958  6.000000000000000  F F F
  19.619713068820886  11.327446621706958  6.000000000000000  F F F
  7.007040381721745  4.045516650609627  6.000000000000000  F F F
  15.415488839787839  2.427309990365776  8.288489805639326  F F F
  15.415488839787839  18.609376592804285  6.000000000000000  F F F
  18.218304992476536  18.609376592804285  6.000000000000000  F F F
  21.021121145165235  18.609376592804285  6.000000000000000  F F F
  0.000000000000000  0.000000000000000  8.288489805639326  F F F
  2.802816152688698  0.000000000000000  8.288489805639326  F F F
  5.605632305377395  0.000000000000000  8.288489805639326  F F F
  8.408448458066093  0.000000000000000  8.288489805639326  F F F
  11.211264610754791  0.000000000000000  8.288489805639326  F F F
  18.239350325097096  0.802020439211968  10.558256595610951  T T T
  5.611408671888925  3.228211551730520  10.552608496306904  T T T
  12.605614602039269  0.800176883611997  10.575270668828063  T T T
  11.211264610754791  9.709239961463105  8.288489805639326  F F F
  8.408448458066093  9.709239961463105  8.288489805639326  F F F
  5.605632305377395  9.709239961463105  8.288489805639326  F F F
  1.401408076344349  7.281929971097329  8.288489805639326  F F F
  2.802816152688698  4.854619980731552  8.288489805639326  F F F
  5.605632305377395  4.854619980731552  8.288489805639326  F F F
  8.408448458066093  4.854619980731552  8.288489805639326  F F F
  11.211264610754791  4.854619980731552  8.288489805639326  F F F
  14.014080763443490  4.854619980731552  8.288489805639326  F F F
  16.816896916132187  4.854619980731552  8.288489805639326  F F F
  19.619713068820886  4.854619980731552  8.288489805639326  F F F
  4.204224229033047  7.281929971097329  8.288489805639326  F F F
  2.802816152688698  9.709239961463105  8.288489805639326  F F F
  7.007040381721745  7.281929971097329  8.288489805639326  F F F
  9.809856534410443  7.281929971097329  8.288489805639326  F F F
  14.014080763443490  14.563859942194657  8.288489805639326  F F F
  12.612672687099140  7.281929971097329  8.288489805639326  F F F
  11.211264610754791  14.563859942194657  8.288489805639326  F F F
  5.605632305377395  14.563859942194657  8.288489805639326  F F F
  21.068828007713673  16.823341577135285  15.341350409400931  T T T
  18.167211039228043  16.932332679827567  15.259614100988754  T T T
  14.014080763443490  9.709239961463105  8.288489805639326  F F F
  16.816896916132187  9.709239961463105  8.288489805639326  F F F
  19.619713068820886  9.709239961463105  8.288489805639326  F F F
  1.401408076344349  12.136549951828881  8.288489805639326  F F F
  4.204224229033047  12.136549951828881  8.288489805639326  F F F
  7.007040381721745  12.136549951828881  8.288489805639326  F F F
  9.809856534410443  12.136549951828881  8.288489805639326  F F F
  12.612672687099140  12.136549951828881  8.288489805639326  F F F
  15.415488839787839  12.136549951828881  8.288489805639326  F F F
  18.218304992476536  12.136549951828881  8.288489805639326  F F F
  21.021121145165235  12.136549951828881  8.288489805639326  F F F
  0.000000000000000  14.563859942194657  8.288489805639326  F F F
  2.802816152688698  14.563859942194657  8.288489805639326  F F F
  8.408448458066093  14.563859942194657  8.288489805639326  F F F
  15.410826884999727  0.809478530597868  10.578322583365427  T T T
  15.415488839787839  7.281929971097329  8.288489805639326  F F F
  21.021121145165235  7.281929971097329  8.288489805639326  F F F
  11.223722430255684  8.075648096280821  10.555933289193721  T T T
  14.019271888808994  8.096812145662042  10.585940810041295  T T T
  14.009445633775572  3.236366774817263  10.563889427569217  T T T
  8.406595065027370  3.233100848590886  10.557525745748292  T T T
  4.204224229033047  16.991169932560432  8.288489805639326  F F F
  4.200373296417703  0.827273738389591  10.565586593654951  T T T
  7.007040381721745  16.991169932560432  8.288489805639326  F F F
  9.809856534410443  16.991169932560432  8.288489805639326  F F F
  12.612672687099140  16.991169932560432  8.288489805639326  F F F
  21.021121145165235  13.754756612072732  6.000000000000000  F F F
  18.218304992476536  16.991169932560432  8.288489805639326  F F F
  21.021121145165235  16.991169932560432  8.288489805639326  F F F
  1.400179403085363  0.808824053387369  10.572347615281481  T T T
  6.996356681985095  0.800460141854871  10.573827622263911  T T T
  9.811013965222312  0.814164010168698  10.569039472729601  T T T
  8.413722062655092  8.078776263111683  10.545721405996764  T T T
  18.218304992476536  7.281929971097329  8.288489805639326  F F F
  5.599311390133339  8.085994566143023  10.551873128551792  T T T
  0.001656130436161  8.087056578564733  10.588088627969947  T T T
  0.000000000000000  9.709239961463105  8.288489805639326  F F F
  16.816896916132187  14.563859942194657  8.288489805639326  F F F
  19.619713068820886  14.563859942194657  8.288489805639326  F F F
  1.401408076344349  16.991169932560432  8.288489805639326  F F F
  15.427796212450215  5.671473758318134  10.575628583956602  T T T
  16.818027988986771  3.238808210801145  10.554256810758769  T T T
  19.612090707594700  3.229240466826951  10.579189254014821  T T T
  1.390703590486466  5.671411946409155  10.583203282075562  T T T
  4.196919264726700  5.672244174548633  10.560898892329217  T T T
  7.007856122373076  5.662265711454384  10.564325792956534  T T T
  9.817318476468833  5.665668065728812  10.578737001338439  T T T
  12.607594661759137  5.655400213884986  10.574683482550862  T T T
  18.209696079290836  5.671528578104898  10.572164048663314  T T T
  11.217043841109561  3.224232443488763  10.561519749951794  T T T
  21.031290882672714  5.673365687582580  10.568528666559867  T T T
  2.792869843390020  8.083638684098103  10.600601460489862  T T T
  15.415488839787839  16.991169932560432  8.288489805639326  F F F
  0.000000000000000  1.618206660243851  6.000000000000000  F F F
  5.605632305377395  16.182066602438510  6.000000000000000  F F F
  15.411853982883784  15.378681412206772  10.570482565453746  T T T
  9.812409402747779  15.388914774283847  10.559958512660465  T T T
  19.668301007424208  1.581516006935784  12.916286742279510  T T T
  2.808010271621095  12.938177374725672  10.543877932727479  T T T
  7.010468287672342  10.509654535846540  10.531852660472206  T T T
  9.814796569651708  10.514693626037504  10.545157059030059  T T T
  12.608482022245468  10.515855483360305  10.566601007083694  T T T
  15.409950269443913  10.511244843896426  10.565452787486391  T T T
  18.218422053772478  10.523752260773183  10.561102422470480  T T T
  21.023251521468833  10.521854958400386  10.571747149931296  T T T
  -0.000304350375302  12.958373659309521  10.546984251852061  T T T
  5.604947177051931  12.956700259381515  10.552407475578413  T T T
  7.012926316424982  15.365936028849369  10.563792524347356  T T T
  8.401003549980512  12.942926377984435  10.538157021833291  T T T
  11.213511138287286  12.943587565020692  10.556429229433785  T T T
  14.019746119833135  12.944386225303418  10.565763661293184  T T T
  16.817016436871530  12.962169873568131  10.562233977108612  T T T
  14.040364436948792  1.591760208431928  12.859441843010092  T T T
  19.620855773628119  12.945287171250502  10.572493265851902  T T T
  11.161142986642361  1.572755042731003  12.893233738497468  T T T
  5.584539004929420  1.630095278993789  12.891085612135159  T T T
  4.277743749427156  12.112438601584955  15.103617663725496  T T T
  2.816608972635665  16.205181867555691  12.956141424431280  T T T
  21.036165854985221  13.710359781438338  12.841684881962371  T T T
  4.199692714979499  10.512288343922545  10.548231039536777  T T T
  14.011394100358496  17.793812817840159  10.568651734461927  T T T
  18.235005312899293  15.371358734859646  10.576988881175025  T T T
  21.021253190192819  15.382864990087390  10.574495287306508  T T T
  -0.000393326223113  17.801974831773361  10.579238842162294  T T T
  2.798867672733796  17.791326107195143  10.571627640734667  T T T
  5.612156647772149  17.797809428593414  10.562429504388623  T T T
  8.396887932890460  17.799503765548344  10.562043887762487  T T T
  11.219612692674115  17.793620464066997  10.577322522216258  T T T
  16.827475907595133  17.809982576940122  10.566481831794629  T T T
  12.608979186313992  15.371879060135996  10.559288032449505  T T T
  19.615489054168965  17.797993186332775  10.608467910901624  T T T
  0.009330888624494  1.633026731893932  12.927582765451023  T T T
  2.808782937273858  1.625491315216034  12.871057850900307  T T T
  8.398448771804416  1.596834653456408  12.843602742277898  T T T
  1.407959304029672  15.387731175644895  10.562237107738211  T T T
  4.190200014590556  15.383578957020566  10.591346382449684  T T T
  16.824923481145461  1.638962070366546  12.798212894800516  T T T
  2.828172239732756  6.461290782368412  12.895131962683122  T T T
  7.035656092783265  4.074491058875596  12.827461756752221  T T T
  9.799798710695503  4.048808510872033  12.817910975440302  T T T
  12.583153816346567  4.070674769126972  12.859431774473418  T T T
  15.392827215037276  4.002069577923173  12.825387060411881  T T T
  18.202536172094323  4.116232378757219  12.849516806786488  T T T
  21.007880719586300  4.020283902649056  12.810627225608954  T T T
  0.014509269974436  6.504823545542179  12.946535637783454  T T T
  5.595883644013060  6.517678069840505  12.849074116238725  T T T
  7.030866355262670  8.893469770704471  12.795016065242166  T T T
  8.404388644450343  6.457618912007370  12.859665470510869  T T T
  11.229664230089801  6.492132549439471  12.909829406185425  T T T
  14.007993122623571  6.455601197586931  12.828635706044809  T T T
  16.783352943495370  6.519785892687745  12.948707246996054  T T T
  19.619894258828552  6.473945744911492  12.812683368934561  T T T
  1.396993020533686  8.937707150938513  12.902143667520590  T T T
  4.209063436545955  8.899316885157928  12.855556903747344  T T T
  4.240529969068653  4.051104551680344  12.804496834619888  T T T
  9.801565500736542  8.895402167356691  12.791474961415574  T T T
  15.400217565649369  8.937739765222908  12.911512974161592  T T T
  15.414694765157355  13.746520517161247  12.862159929428708  T T T
  1.406067159202666  4.058236700605515  12.855626835934103  T T T
  18.205098117375524  13.729386717188614  12.870734543848750  T T T
  13.961755050297359  11.313991000351518  12.856926627670960  T T T
  18.236734496472192  8.932809938251433  12.841844313976535  T T T
  21.003987299838670  8.929825489950204  12.858640893016615  T T T
  0.026490711717840  11.346975342231277  12.805595598887113  T T T
  2.846751456566231  11.305004432814933  12.845147199709736  T T T
  5.631317255547370  11.306587810264773  12.781546282942788  T T T
  1.517777400192896  12.171194755974707  15.078106799493252  T T T
  8.407254767346352  11.321014781582948  12.801542457586551  T T T
  16.776376988166739  11.349267251050078  12.810986534721275  T T T
  12.602959370637798  8.902693703725939  12.856130896893616  T T T
  19.624401056796319  11.316842178180451  12.873573856284629  T T T
  1.451651733665841  13.769894241679058  12.774108635923602  T T T
  4.240883910020073  13.735368309446152  12.840776129157829  T T T
  6.986278155913006  13.751875117608785  12.847670836861646  T T T
  9.771351365599527  13.746176195072641  12.783183682380850  T T T
  12.578154068909077  13.724894130483115  12.827266652421912  T T T
  11.190702839412713  11.343494515620897  12.847143436195445  T T T
  4.204224229033047  18.609376592804285  6.000000000000000  F F F
  19.619133981844261  9.744746262003618  15.231665073027219  T T T
  13.900844636169516  9.766405674372455  15.265257467798921  T T T
  2.844537357775449  4.910658458590942  15.137528109063117  T T T
  5.704313391485556  4.938728866694827  15.083473762186690  T T T
  8.380470440776877  4.944502160840275  15.352921031480184  T T T
  11.187059656346850  4.913331052415101  15.219024002330297  T T T
  13.961622777664395  4.830440680692583  15.167610415343395  T T T
  13.965926725950187  -0.052847066672401  15.187081303021840  T T T
  8.412342695073798  0.032043047974372  15.136896404697552  T T T
  19.557310470351826  4.808909149223347  15.148011591848523  T T T
  4.243655140299011  18.569071208388785  12.791014549715554  T T T
  5.591854882513410  16.154319722718533  12.851175989206741  T T T
  8.416463320303977  16.189688114445435  12.864353611039220  T T T
  11.203830358701628  16.163255813118163  12.885467511871981  T T T
  13.969843944178539  16.178388628236270  12.859383103831657  T T T
  16.859249460287572  16.184545117432751  12.808723636334861  T T T
  19.654963226441613  16.213423791412701  12.914478592809843  T T T
  1.426275123500625  18.637199905438557  12.862401717032849  T T T
  7.018109468397943  18.612913127576217  12.887345225806703  T T T
  -0.038874508132402  4.915066409428416  15.160401104988646  T T T
  5.693673100464806  0.105309432520338  15.215685861368033  T T T
  20.950273271629584  2.394372032675726  15.395749709990055  T T T
  18.239530375205693  2.423521405696419  15.047561901340284  T T T
  8.408448458066093  16.182066602438510  6.000000000000000  F F F
  11.211264610754791  16.182066602438510  6.000000000000000  F F F
  14.014080763443490  16.182066602438510  6.000000000000000  F F F
  16.816896916132187  16.182066602438510  6.000000000000000  F F F
  19.619713068820886  16.182066602438510  6.000000000000000  F F F
  1.401408076344349  18.609376592804285  6.000000000000000  F F F
  16.811344204354707  8.088458698726365  10.585705741111484  T T T
  19.617933665149220  8.099590244938442  10.563144438438863  T T T
  1.409275230887116  10.505310346877293  10.559936051785220  T T T
  15.411158347927953  2.457823597556708  15.251465499913031  T T T
  16.784781817501944  0.032333908881987  15.088865649514389  T T T
  19.589409607308955  -0.000347360358983  15.121394062372806  T T T
  1.451125333971823  2.406807898785546  15.201169884541967  T T T
  4.330902128471436  2.505779589978417  15.242366578882898  T T T
  7.019248041807961  2.458863329159788  15.081395684706500  T T T
  9.785939621464344  2.459593150023820  15.192513120464262  T T T
  12.577260506410941  2.405737290361829  15.038452157898170  T T T
  11.152277306446635  0.040043591703891  15.378696359768629  T T T
  9.824448408084127  18.581743977737922  12.815476077059607  T T T
  12.589352339890867  18.645197801048820  12.886422413465176  T T T
  15.362895302846471  18.560724249662631  12.843238864404537  T T T
  12.579695795100502  16.939129512364765  15.231198816143445  T T T
  15.407002140549512  16.865319605802785  15.126859243198970  T T T
  15.288108574586161  12.225811211826690  15.185449519827319  T T T
  9.759198076805767  12.138123383831037  15.130084543788859  T T T
  4.340813783118820  7.281570344145969  15.290398312493197  T T T
  2.893195847341150  9.823726134780577  15.285746999362084  T T T
  7.031953081266733  7.303822542710613  15.127125093074831  T T T
  9.779826684749660  7.360895694035453  15.138125859246752  T T T
  12.528934319295164  7.258341859787481  15.190063404992179  T T T
  15.387450779638872  7.308365140791510  15.197972398456848  T T T
  18.151183154371065  7.203065008736183  15.151700992329305  T T T
  21.060226809064737  7.275131845434069  15.186398632912212  T T T
  0.121510159066509  9.749293850545929  15.162964496642511  T T T
  5.687110054735630  9.728526492856831  15.106538530349686  T T T
  7.015847136142352  12.099380175745809  15.124642060535331  T T T
  8.382352996181879  9.728999748404663  15.139602392887648  T T T
  11.068820321012989  9.728411270118654  15.114606923972580  T T T
  9.742930091427040  16.922787585745464  15.253831478940823  T T T
  7.015473205911912  16.912375967050913  15.157786591620484  T T T
  4.180583019199625  16.844745180351492  15.441591634593493  T T T
  1.470862362508814  16.907486711806268  15.195240612620699  T T T
  18.174723552448302  18.624848969117899  12.900855442062774  T T T
  21.074241055017385  18.585027790307421  12.857636696551474  T T T
  0.067774475180011  0.037037211369969  15.167971355551838  T T T
  2.960502932778489  -0.083461912150751  15.085023454182100  T T T
  16.766932749567481  4.875315172588363  15.177511879417033  T T T
  1.416590367667543  7.278210059155321  15.184896253341389  T T T
  -0.003959469248182  16.175997920740613  12.864738048694264  T T T
  13.841770609008490  14.558443937097051  15.104139412113735  T T T
  16.742786115547471  9.727456934604403  15.134153442550200  T T T
  18.138454903708503  12.225876568561180  15.140959626287104  T T T
  0.067556656896369  14.512976606934561  15.065665496350602  T T T
  2.847249692732679  14.499008402630363  15.119628494326973  T T T
  5.630816050947356  14.423415621131358  15.303497317881446  T T T
  8.434101551287380  14.483331685913807  15.127958001471628  T T T
  11.120360406214113  14.538622019936161  15.116528634253687  T T T
  16.801210770483809  14.524593098049007  15.151582855299308  T T T
  12.450977328420581  12.159126378433367  15.282311414252161  T T T
  19.670295817152066  14.507148882149025  15.065901096037750  T T T
  21.111276276912189  12.246882189055018  15.224909448947439  T T T
  2.802816152688698  16.182066602438510  6.000000000000000  F F F
